solution status: optimal solution found
objective value:                                    0
$_62_y                                            -25 	(obj:0)
$_62_z                                            -23 	(obj:0)
$_45_y                                            -25 	(obj:0)
$_45_z                                            -20 	(obj:0)
$_51_y                                            -25 	(obj:0)
$_51_z                                            -22 	(obj:0)
$_49_y                                            -25 	(obj:0)
$_49_z                                            -25 	(obj:0)
$_69_y                                            -23 	(obj:0)
$_69_z                                            -25 	(obj:0)
$_151_y                                           -25 	(obj:0)
$_151_z                                           -21 	(obj:0)
